(set-info :source |printed by MathSAT|)
(declare-fun |.x{25}| () (Array Int Int))
(declare-fun |.x{29}| () (Array Int Int))
(declare-fun |.y{3}| () Int)
(declare-fun |.y{6}| () Int)
(declare-fun |.y{4}| () Int)
(declare-fun |.y{7}| () Int)
(declare-fun |.x{26}| () (Array Int Int))
(declare-fun |.x{30}| () (Array Int Int))
(declare-fun |.x{27}| () Int)
(declare-fun |.x{31}| () Int)
(declare-fun |.x{28}| () Int)
(declare-fun |.x{32}| () Int)
(declare-fun |.y{5}| () Int)
(declare-fun |.x{33}| () Int)
(declare-fun |.loc{3}| () Bool)
(declare-fun |.loc{5}| () Bool)
(declare-fun |.loc{4}| () Bool)
(declare-fun |.loc{6}| () Bool)
(define-fun .def_22 () Bool (! |.loc{3}| :next |.loc{5}|))
(define-fun .def_44 () Bool (not .def_22))
(define-fun .def_24 () Bool (! |.loc{4}| :next |.loc{6}|))
(define-fun .def_39 () Bool (not .def_24))
(define-fun .def_110 () Bool (and .def_39 .def_44))
(define-fun .def_10 () Int (! |.y{3}| :next |.y{6}|))
(define-fun .def_109 () Bool (= .def_10 0))
(define-fun .def_111 () Bool (! (and .def_109 .def_110) :init true))
(define-fun .def_8 () (Array Int Int) (! |.x{25}| :next |.x{29}|))
(define-fun .def_106 () Bool (= .def_8 |.x{29}|))
(define-fun .def_14 () (Array Int Int) (! |.x{26}| :next |.x{30}|))
(define-fun .def_102 () Bool (= .def_14 |.x{30}|))
(define-fun .def_28 () Bool (not |.loc{5}|))
(define-fun .def_100 () Bool (and |.loc{6}| .def_28))
(define-fun .def_18 () Int (! |.x{28}| :next |.x{32}|))
(define-fun .def_97 () Bool (= .def_18 |.x{33}|))
(define-fun .def_95 () Bool (= |.x{32}| 0))
(define-fun .def_16 () Int (! |.x{27}| :next |.x{31}|))
(define-fun .def_54 () Bool (<= .def_18 .def_16))
(define-fun .def_92 () Bool (and .def_22 .def_54))
(define-fun .def_67 () Bool (= |.x{31}| 0))
(define-fun .def_93 () Bool (and .def_67 .def_92))
(define-fun .def_94 () Bool (and .def_39 .def_93))
(define-fun .def_96 () Bool (and .def_94 .def_95))
(define-fun .def_98 () Bool (and .def_96 .def_97))
(define-fun .def_20 () Int (! |.y{5}| :next |.x{33}|))
(define-fun .def_46 () Int (* (- 1) |.x{31}|))
(define-fun .def_79 () Int (+ .def_46 .def_20))
(define-fun .def_80 () Int (select .def_14 .def_79))
(define-fun .def_81 () Int (* (- 1) .def_80))
(define-fun .def_77 () Int (select .def_8 .def_16))
(define-fun .def_82 () Int (+ .def_77 .def_81))
(define-fun .def_83 () Int (* (- 1) |.x{32}|))
(define-fun .def_86 () Int (+ .def_83 .def_82))
(define-fun .def_87 () Int (+ .def_18 .def_86))
(define-fun .def_88 () Bool (= .def_87 0))
(define-fun .def_74 () Bool (<= .def_20 .def_16))
(define-fun .def_75 () Bool (not .def_74))
(define-fun .def_72 () Bool (= .def_20 |.x{33}|))
(define-fun .def_51 () Int (+ .def_16 .def_46))
(define-fun .def_52 () Bool (= .def_51 (- 1)))
(define-fun .def_73 () Bool (and .def_52 .def_72))
(define-fun .def_76 () Bool (and .def_73 .def_75))
(define-fun .def_89 () Bool (and .def_76 .def_88))
(define-fun .def_90 () Bool (and .def_24 .def_89))
(define-fun .def_91 () Bool (and .def_44 .def_90))
(define-fun .def_99 () Bool (or .def_91 .def_98))
(define-fun .def_101 () Bool (and .def_99 .def_100))
(define-fun .def_103 () Bool (and .def_101 .def_102))
(define-fun .def_12 () Int (! |.y{4}| :next |.y{7}|))
(define-fun .def_63 () Bool (= .def_12 |.x{32}|))
(define-fun .def_27 () Bool (not |.loc{6}|))
(define-fun .def_64 () Bool (and .def_27 .def_63))
(define-fun .def_36 () Bool (<= .def_12 .def_10))
(define-fun .def_65 () Bool (and .def_36 .def_64))
(define-fun .def_68 () Bool (and .def_65 .def_67))
(define-fun .def_69 () Bool (and .def_39 .def_68))
(define-fun .def_70 () Bool (and |.loc{5}| .def_69))
(define-fun .def_71 () Bool (and .def_44 .def_70))
(define-fun .def_104 () Bool (or .def_71 .def_103))
(define-fun .def_60 () Bool (= .def_18 |.x{32}|))
(define-fun .def_55 () Bool (not .def_54))
(define-fun .def_48 () Int (+ .def_46 .def_18))
(define-fun .def_49 () (Array Int Int) (store .def_14 .def_48 .def_16))
(define-fun .def_50 () Bool (= |.x{30}| .def_49))
(define-fun .def_53 () Bool (and .def_50 .def_52))
(define-fun .def_56 () Bool (and .def_53 .def_55))
(define-fun .def_57 () Bool (and .def_27 .def_56))
(define-fun .def_58 () Bool (and .def_22 .def_57))
(define-fun .def_59 () Bool (and .def_39 .def_58))
(define-fun .def_61 () Bool (and .def_59 .def_60))
(define-fun .def_62 () Bool (and |.loc{5}| .def_61))
(define-fun .def_105 () Bool (or .def_62 .def_104))
(define-fun .def_107 () Bool (and .def_105 .def_106))
(define-fun .def_41 () (Array Int Int) (store .def_8 .def_10 .def_10))
(define-fun .def_42 () Bool (= |.x{29}| .def_41))
(define-fun .def_37 () Bool (not .def_36))
(define-fun .def_32 () Int (* (- 1) |.y{6}|))
(define-fun .def_33 () Int (+ .def_10 .def_32))
(define-fun .def_34 () Bool (= .def_33 (- 1)))
(define-fun .def_29 () Bool (and .def_27 .def_28))
(define-fun .def_26 () Bool (= .def_12 |.y{7}|))
(define-fun .def_30 () Bool (and .def_26 .def_29))
(define-fun .def_35 () Bool (and .def_30 .def_34))
(define-fun .def_38 () Bool (and .def_35 .def_37))
(define-fun .def_40 () Bool (and .def_38 .def_39))
(define-fun .def_43 () Bool (and .def_40 .def_42))
(define-fun .def_45 () Bool (and .def_43 .def_44))
(define-fun .def_108 () Bool (! (or .def_45 .def_107) :trans true))
(define-fun .def_115 () Bool (and .def_24 .def_44))
(define-fun .def_112 () Bool (= .def_18 0))
(define-fun .def_113 () Bool (not .def_112))
(define-fun .def_114 () Bool (and .def_74 .def_113))
(define-fun .def_116 () Bool (and .def_114 .def_115))
(define-fun .def_117 () Bool (! (not .def_116) :invar-property 0))
(assert true)
